8910242969419331240506,12,1,2,09,1,1,2,01,7,1,2,014,15,1,2,011,3,1,2,04,15,1,2,05,4,1,2,02,7,1,2,011,11,1,2,010,15,1,2,014,3,1,2,014,4,1,2,09,11,1,2,02,13,1,2,013,6,1,2,09,3,1,2,07,11,1,2,013,12,1,2,011,1,1,2,07,5,1,2,010,12,1,2,07,10,1,2,014,7,1,2,01,8,1,2,02,14,1,2,07,9,1,2,02,1,1,2,03,2,1,2,01,10,1,2,01,10,1,2,01,3,1,2,02,9,1,2,014,8,1,2,05,1,1,2,012,11,1,2,011,6,1,2,015,2,1,2,09,5,1,2,05,8,1,2,012,6,1,2,05,1,1,2,04,7,1,2,014,10,1,2,01,4,1,2,04,9,1,2,010,3,1,2,010,3,1,2,07,10,1,2,09,12,1,2,011,3,1,2,0